letting n =  10
letting blocks =  [[1, 2], [1, 3], [2, 2], [2, 7], [2, 10], [3, 3], [3, 4], [3, 10], [4, 2], [4, 7], [4, 9], [5, 1], [5, 3], [5, 7], [5, 8], [5, 10], [6, 3], [7, 4], [7, 9], [8, 3], [8, 7], [8, 9], [9, 3], [10, 5], [10, 8], [10, 9]]
